c Maximum weighted independent set instances generated from exactcolors.
c scalef: 16777215 .
c An independent set of value > 16777215 defines an improving stable sets for coloring.
p edge 128 387
e 1 31
e 1 55
e 1 80
e 1 98
e 1 109
e 2 10
e 2 45
e 2 75
e 2 93
e 2 111
e 2 113
e 2 123
e 2 127
e 3 5
e 4 9
e 4 18
e 4 21
e 4 26
e 4 40
e 4 104
e 4 124
e 5 48
e 5 87
e 6 13
e 6 23
e 6 60
e 6 71
e 6 89
e 7 14
e 7 91
e 7 99
e 8 19
e 8 43
e 8 62
e 8 73
e 8 88
e 8 91
e 8 100
e 8 128
e 9 18
e 9 21
e 9 104
e 9 124
e 10 20
e 10 24
e 10 30
e 10 38
e 10 41
e 10 45
e 10 53
e 10 75
e 10 93
e 10 111
e 10 113
e 10 116
e 11 17
e 11 42
e 11 50
e 11 59
e 11 85
e 12 32
e 12 37
e 13 60
e 13 71
e 13 89
e 13 96
e 15 29
e 15 40
e 15 54
e 15 77
e 16 33
e 17 50
e 17 85
e 18 21
e 18 26
e 18 40
e 18 104
e 18 124
e 19 39
e 19 43
e 19 73
e 19 78
e 19 100
e 19 101
e 20 24
e 20 25
e 20 30
e 20 38
e 20 45
e 20 46
e 20 53
e 20 58
e 20 69
e 20 82
e 20 94
e 20 113
e 20 115
e 20 116
e 20 126
e 21 26
e 21 40
e 21 49
e 21 104
e 21 124
e 22 36
e 22 61
e 22 82
e 22 86
e 22 118
e 23 56
e 23 60
e 23 71
e 23 89
e 24 30
e 24 38
e 24 41
e 24 53
e 24 61
e 24 93
e 24 113
e 24 116
e 25 30
e 25 36
e 25 38
e 25 46
e 25 53
e 25 58
e 25 61
e 25 82
e 25 86
e 25 94
e 25 116
e 25 118
e 26 40
e 26 104
e 26 124
e 27 76
e 27 88
e 27 108
e 27 110
e 27 128
e 28 52
e 28 62
e 28 66
e 28 68
e 28 91
e 28 92
e 28 99
e 28 115
e 28 123
e 28 126
e 29 54
e 29 77
e 30 38
e 30 41
e 30 53
e 30 58
e 30 61
e 30 82
e 30 93
e 30 113
e 30 116
e 31 44
e 31 98
e 31 103
e 31 120
e 32 37
e 34 121
e 36 38
e 36 61
e 36 82
e 36 86
e 36 118
e 37 47
e 38 41
e 38 53
e 38 61
e 38 82
e 38 86
e 38 113
e 38 116
e 39 73
e 39 78
e 39 100
e 39 105
e 39 114
e 39 125
e 40 124
e 41 53
e 41 116
e 42 50
e 42 59
e 42 63
e 42 81
e 42 85
e 43 62
e 43 73
e 43 91
e 43 100
e 43 114
e 43 128
e 44 57
e 44 72
e 44 98
e 44 103
e 44 119
e 44 120
e 45 52
e 45 66
e 45 69
e 45 92
e 45 113
e 45 115
e 45 123
e 45 126
e 46 53
e 46 58
e 46 82
e 46 83
e 46 94
e 46 118
e 49 104
e 50 63
e 50 81
e 50 85
e 52 62
e 52 66
e 52 68
e 52 69
e 52 91
e 52 92
e 52 99
e 52 115
e 52 123
e 52 126
e 53 58
e 53 61
e 53 69
e 53 82
e 53 86
e 53 94
e 53 113
e 53 116
e 54 77
e 55 57
e 55 67
e 55 98
e 55 103
e 56 60
e 56 89
e 56 95
e 56 106
e 57 67
e 57 98
e 57 103
e 58 61
e 58 69
e 58 82
e 58 83
e 58 86
e 58 94
e 58 116
e 58 118
e 59 85
e 60 71
e 60 89
e 60 95
e 60 106
e 61 82
e 61 86
e 61 116
e 61 118
e 62 68
e 62 76
e 62 88
e 62 91
e 62 92
e 62 99
e 63 81
e 64 67
e 64 70
e 64 122
e 65 97
e 65 125
e 66 68
e 66 69
e 66 92
e 66 115
e 66 123
e 66 126
e 67 122
e 68 76
e 68 88
e 68 91
e 68 92
e 68 123
e 69 83
e 69 94
e 69 115
e 69 123
e 69 126
e 70 122
e 71 89
e 71 96
e 72 119
e 72 120
e 73 78
e 73 100
e 73 101
e 74 79
e 74 97
e 74 105
e 74 114
e 74 117
e 75 93
e 75 107
e 75 111
e 75 113
e 75 127
e 76 88
e 76 92
e 76 128
e 78 97
e 78 100
e 78 101
e 78 105
e 78 114
e 78 125
e 79 90
e 79 102
e 79 108
e 79 110
e 80 90
e 80 102
e 80 109
e 82 86
e 82 94
e 82 116
e 82 118
e 83 94
e 84 93
e 84 96
e 84 111
e 84 127
e 86 116
e 86 118
e 88 91
e 88 92
e 88 128
e 90 102
e 90 108
e 90 109
e 90 110
e 91 92
e 91 99
e 92 107
e 92 115
e 92 123
e 92 126
e 93 111
e 93 113
e 93 127
e 94 116
e 95 106
e 96 111
e 96 127
e 97 105
e 97 117
e 97 125
e 98 103
e 98 109
e 100 101
e 100 114
e 104 124
e 105 117
e 105 125
e 107 127
e 108 109
e 108 110
e 111 127
e 113 115
e 113 116
e 113 123
e 113 126
e 115 123
e 115 126
e 123 126
n 1 0
n 2 0
n 3 0
n 4 0
n 5 0
n 6 0
n 7 0
n 8 0
n 9 0
n 10 16777215
n 11 0
n 12 0
n 13 0
n 14 0
n 15 0
n 16 0
n 17 0
n 18 0
n 19 0
n 20 16777215
n 21 0
n 22 0
n 23 0
n 24 16777215
n 25 0
n 26 0
n 27 0
n 28 0
n 29 0
n 30 16777215
n 31 0
n 32 0
n 33 0
n 34 0
n 35 0
n 36 0
n 37 0
n 38 16777215
n 39 0
n 40 0
n 41 0
n 42 0
n 43 0
n 44 0
n 45 0
n 46 0
n 47 0
n 48 0
n 49 0
n 50 0
n 51 0
n 52 0
n 53 16777215
n 54 0
n 55 0
n 56 0
n 57 0
n 58 0
n 59 0
n 60 0
n 61 0
n 62 0
n 63 0
n 64 0
n 65 0
n 66 0
n 67 0
n 68 0
n 69 0
n 70 0
n 71 0
n 72 0
n 73 0
n 74 0
n 75 0
n 76 0
n 77 0
n 78 0
n 79 0
n 80 0
n 81 0
n 82 0
n 83 0
n 84 0
n 85 0
n 86 0
n 87 0
n 88 0
n 89 0
n 90 0
n 91 0
n 92 0
n 93 0
n 94 0
n 95 0
n 96 0
n 97 0
n 98 0
n 99 0
n 100 0
n 101 0
n 102 0
n 103 0
n 104 0
n 105 0
n 106 0
n 107 0
n 108 0
n 109 0
n 110 0
n 111 0
n 112 0
n 113 16777215
n 114 0
n 115 0
n 116 16777215
n 117 0
n 118 0
n 119 0
n 120 0
n 121 0
n 122 0
n 123 0
n 124 0
n 125 0
n 126 0
n 127 0
n 128 0
